50
150 150
1 105 585
2 104 187
3 102 164
4 95 200
5 94 301
6 92 885
7 91 611
8 89 667
9 87 460
10 87 632
11 87 772
12 82 238
13 77 513
14 73 457
15 73 329
16 73 594
17 72 75
18 71 500
19 71 501
20 69 92
21 65 760
22 63 636
23 56 422
24 56 613
25 56 216
26 55 458
27 55 128
28 55 557
29 52 570
30 52 623
31 51 217
32 51 589
33 48 397
34 48 804
35 47 52
36 47 525
37 46 226
38 43 8
39 42 493
40 41 692
41 40 704
42 38 416
43 36 308
44 33 822
45 28 370
46 21 296
47 21 549
48 19 129
49 18 226
50 16 352
